22629305082005340025010,7,1,2,07,8,1,2,04,3,1,2,06,11,1,2,013,8,1,2,05,4,1,2,01,12,1,2,07,4,1,2,09,10,1,2,07,5,1,2,013,11,1,2,011,8,1,2,09,14,1,2,011,2,1,2,03,2,1,2,014,5,1,2,015,11,1,2,05,3,1,2,05,1,1,2,04,10,1,2,08,6,1,2,03,5,1,2,05,14,1,2,014,2,1,2,015,8,1,2,011,14,1,2,014,7,1,2,09,15,1,2,08,13,1,2,01,8,1,2,04,13,1,2,06,1,1,2,013,3,1,2,05,13,1,2,08,15,1,2,03,7,1,2,014,9,1,2,07,2,1,2,07,14,1,2,011,3,1,2,06,4,1,2,013,1,1,2,05,12,1,2,07,4,1,2,05,14,1,2,05,5,1,2,014,11,1,2,02,4,1,2,05,1,1,2,07,10,1,2,0